objective value:                 0.000617620818000097
x_1_2                                               1 	(obj:0)
x_2_1                                               1 	(obj:0)
x_3_2                                               1 	(obj:0)
x_4_4                                               1 	(obj:0)
x_5_2                                               1 	(obj:0)
x_6_1                                               1 	(obj:0)
x_7_1                                               1 	(obj:0)
x_8_4                                               1 	(obj:0)
x_9_2                                               1 	(obj:0)
x_10_2                                              1 	(obj:0)
x_11_1                                              1 	(obj:0)
x_12_2                                              1 	(obj:0)
x_13_4                                              1 	(obj:0)
x_14_1                                              1 	(obj:0)
x_15_4                                              1 	(obj:0)
x_16_2                                              1 	(obj:0)
x_17_1                                              1 	(obj:0)
x_18_1                                              1 	(obj:0)
x_19_2                                              1 	(obj:0)
x_20_4                                              1 	(obj:0)
x_21_1                                              1 	(obj:0)
x_22_4                                              1 	(obj:0)
x_23_2                                              1 	(obj:0)
x_24_4                                              1 	(obj:0)
x_25_2                                              1 	(obj:0)
x_26_4                                              1 	(obj:0)
x_27_1                                              1 	(obj:0)
x_28_4                                              1 	(obj:0)
x_29_1                                              1 	(obj:0)
x_30_2                                              1 	(obj:0)
x_31_2                                              1 	(obj:0)
x_32_1                                              1 	(obj:0)
x_33_4                                              1 	(obj:0)
x_34_4                                              1 	(obj:0)
x_35_2                                              1 	(obj:0)
x_36_4                                              1 	(obj:0)
x_37_1                                              1 	(obj:0)
x_38_4                                              1 	(obj:0)
x_39_2                                              1 	(obj:0)
x_40_4                                              1 	(obj:0)
ind_1                                               1 	(obj:0)
abs_1_4                                             1 	(obj:0)
ind_2                                               1 	(obj:0)
abs_2_1                                             1 	(obj:0)
ind_4                                               1 	(obj:0)
abs_4_2                                             1 	(obj:0)
epsI                             0.000617620818000097 	(obj:1)
SCIP Status        : solving was interrupted [node limit reached]
Total Time         :       4.60
  solving          :       4.59
  presolving       :       0.16 (included in solving)
  reading          :       0.01
  copying          :       0.02 (1 #copies) (minimal 0.02, maximal 0.02, average 0.02)
Original Problem   :
  Problem name     : instances/Pot4/Pot4_T_40B_1t.txt.spa
  Variables        : 181 (180 binary, 0 integer, 0 implicit integer, 1 continuous)
  Constraints      : 333 initial, 333 maximal
  Objective sense  : maximize
Presolved Problem  :
  Problem name     : t_instances/Pot4/Pot4_T_40B_1t.txt.spa
  Variables        : 1230 (172 binary, 0 integer, 16 implicit integer, 1042 continuous)
  Constraints      : 4315 initial, 4315 maximal
Presolvers         :   ExecTime  SetupTime  Calls  FixedVars   AggrVars   ChgTypes  ChgBounds   AddHoles    DelCons    AddCons   ChgSides   ChgCoefs
  boundshift       :       0.00       0.00      0          0          0          0          0          0          0          0          0          0
  components       :       0.00       0.00      1          0          0          0          0          0          0          0          0          0
  convertinttobin  :       0.00       0.00      0          0          0          0          0          0          0          0          0          0
  domcol           :       0.01       0.00      1          0          0          0          0          0          0          0          0          0
  dualagg          :       0.00       0.00      0          0          0          0          0          0          0          0          0          0
  dualinfer        :       0.00       0.00      0          0          0          0          0          0          0          0          0          0
  gateextraction   :       0.00       0.00      3          0          0          0          0          0        108         34          0          0
  implfree         :       0.00       0.00      0          0          0          0          0          0          0          0          0          0
  implics          :       0.00       0.00      4          0          0          0          0          0          0          0          0          0
  inttobinary      :       0.00       0.00      0          0          0          0          0          0          0          0          0          0
  redvub           :       0.00       0.00      0          0          0          0          0          0          0          0          0          0
  stuffing         :       0.00       0.00      1          0          0          0          0          0          0          0          0          0
  trivial          :       0.00       0.00      7          0          0          0          0          0          0          0          0          0
  tworowbnd        :       0.00       0.00      0          0          0          0          0          0          0          0          0          0
  dualfix          :       0.00       0.00      7          4          0          0          0          0          0          0          0          0
  genvbounds       :       0.00       0.00      0          0          0          0          0          0          0          0          0          0
  probing          :       0.09       0.00      1          0          0          0          4          0          0          0          0          0
  pseudoobj        :       0.00       0.00      0          0          0          0          0          0          0          0          0          0
  varbound         :       0.00       0.00      9          0          0          0          0          0         28         28          0          0
  setppc           :       0.00       0.00     12          0          0          0          0          0          0          0          0          0
  and              :       0.00       0.00      4          0         12          0          0          0         12          0          0          0
  linear           :       0.02       0.00      9          3          1          0          4          0          7          0         12         12
  logicor          :       0.00       0.00      7          0          0          0          0          0          0          0          0          0
  bounddisjunction :       0.00       0.00      0          0          0          0          0          0          0          0          0          0
  quadratic        :       0.03       0.00      2          0          0          0          0          0          0       4075          0          0
  root node        :          -          -      -          1          -          -         30          -          -          -          -          -
Constraints        :     Number  MaxNumber  #Separate #Propagate    #EnfoLP    #EnfoPS     #Check   #ResProp    Cutoffs    DomReds       Cuts    Applied      Conss   Children
  integral         :          0          0          0          0        192          0         43          0          0       1402          0          0          0        138
  varbound         :       1909       1909        113       8279         27          0         27       1489         22       1438          0          0          0          0
  setppc           :        210        210        113       8257         27          0         21        896         18        168         17          1          0          0
  and              :         22         22        278       8209         27          0         19         34          5         27         12          8          0          0
  linear           :       2099       2099        113       8234         27          0         16        364         65       4611       3885       3360          0          0
  logicor          :         75+        87        101       1588          0          0          0         42          0         14          1          1          0          0
  bounddisjunction :          0+        25          0       1075          0          0          0          0          1          2          0          0          0          0
  countsols        :          0          0          0          0          0          0         11          0          0          0          0          0          0          0
Constraint Timings :  TotalTime  SetupTime   Separate  Propagate     EnfoLP     EnfoPS      Check    ResProp    SB-Prop
  integral         :       0.84       0.00       0.00       0.00       0.84       0.00       0.00       0.00       0.00
  varbound         :       0.10       0.00       0.01       0.09       0.00       0.00       0.00       0.00       0.00
  setppc           :       0.18       0.00       0.00       0.18       0.00       0.00       0.00       0.00       0.00
  and              :       0.01       0.00       0.00       0.01       0.00       0.00       0.00       0.00       0.00
  linear           :       0.55       0.00       0.07       0.47       0.00       0.00       0.01       0.00       0.00
  logicor          :       0.01       0.00       0.00       0.01       0.00       0.00       0.00       0.00       0.00
  bounddisjunction :       0.00       0.00       0.00       0.00       0.00       0.00       0.00       0.00       0.00
  countsols        :       0.00       0.00       0.00       0.00       0.00       0.00       0.00       0.00       0.00
Propagators        : #Propagate   #ResProp    Cutoffs    DomReds
  dualfix          :          2          0          0          0
  genvbounds       :          0          0          0          0
  obbt             :          0          0          0          0
  probing          :          0          0          0          0
  pseudoobj        :        752          0          0         29
  redcost          :        502          0          0          5
  rootredcost      :          1          0          0          0
  vbounds          :       7763          0          0          0
Propagator Timings :  TotalTime  SetupTime   Presolve  Propagate    ResProp    SB-Prop
  dualfix          :       0.00       0.00       0.00       0.00       0.00       0.00
  genvbounds       :       0.00       0.00       0.00       0.00       0.00       0.00
  obbt             :       0.00       0.00       0.00       0.00       0.00       0.00
  probing          :       0.09       0.00       0.09       0.00       0.00       0.00
  pseudoobj        :       0.00       0.00       0.00       0.00       0.00       0.00
  redcost          :       0.00       0.00       0.00       0.00       0.00       0.00
  rootredcost      :       0.00       0.00       0.00       0.00       0.00       0.00
  vbounds          :       0.00       0.00       0.00       0.00       0.00       0.00
Conflict Analysis  :       Time      Calls    Success    DomReds  Conflicts   Literals    Reconvs ReconvLits   LP Iters
  propagation      :       0.02         46         45          -        732       72.7         12       67.4          -
  infeasible LP    :       0.00         22          0          -          0        0.0          0        0.0          0
  bound exceed. LP :       0.00          0          0          -          0        0.0          0        0.0          0
  strong branching :       0.00          0          0          -          0        0.0          0        0.0          0
  pseudo solution  :       0.00          0          0          -          0        0.0          0        0.0          -
  applied globally :       0.00          -          -          0         37       10.6          -          -          -
  applied locally  :          -          -          -          0         17       48.9          -          -          -
Separators         :   ExecTime  SetupTime      Calls    Cutoffs    DomReds       Cuts    Applied      Conss
  cut pool         :       0.01                   112          -          -       1225          -          -    (maximal pool size: 678)
  cgmip            :       0.00       0.00          0          0          0          0          0          0
  clique           :       0.03       0.00        113          0          0         80         51          0
  closecuts        :       0.00       0.00          0          0          0          0          0          0
  cmir             :       0.04       0.00         10          0          0        104         59          0
  disjunctive      :       0.00       0.00          0          0          0          0          0          0
  eccuts           :       0.00       0.00          0          0          0          0          0          0
  flowcover        :       0.93       0.00         15          0          0        295         78          0
  gomory           :       0.11       0.00         10          0          0         14         14          0
  impliedbounds    :       0.02       0.00        113          0          0       1090        173          0
  intobj           :       0.00       0.00          0          0          0          0          0          0
  mcf              :       0.00       0.00          1          0          0          0          0          0
  oddcycle         :       0.00       0.00          0          0          0          0          0          0
  rapidlearning    :       0.00       0.00          0          0          0          0          0          0
  strongcg         :       0.16       0.00         20          0          0          0          0          0
  zerohalf         :       0.00       0.00          0          0          0          0          0          0
Pricers            :   ExecTime  SetupTime      Calls       Vars
  problem variables:       0.00          -          0          0
Branching Rules    :   ExecTime  SetupTime   BranchLP  BranchExt   BranchPS    Cutoffs    DomReds       Cuts      Conss   Children
  allfullstrong    :       0.00       0.00          0          0          0          0          0          0          0          0
  cloud            :       0.00       0.00          0          0          0          0          0          0          0          0
  distribution     :       0.00       0.00          0          0          0          0          0          0          0          0
  fullstrong       :       0.00       0.00          0          0          0          0          0          0          0          0
  inference        :       0.00       0.00          0          0          0          0          0          0          0          0
  leastinf         :       0.00       0.00          0          0          0          0          0          0          0          0
  mostinf          :       0.00       0.00          0          0          0          0          0          0          0          0
  multaggr         :       0.00       0.00          0          0          0          0          0          0          0          0
  nodereopt        :       0.00       0.00          0          0          0          0          0          0          0          0
  pscost           :       0.00       0.00          0          0          0          0          0          0          0          0
  random           :       0.00       0.00          0          0          0          0          0          0          0          0
  relpscost        :       0.84       0.00        165          0          0          0       1402          0          0        138
Primal Heuristics  :   ExecTime  SetupTime      Calls      Found       Best
  LP solutions     :       0.00          -          -          0          -
  pseudo solutions :       0.00          -          -          0          -
  strong branching :       0.01          -          -          0          -
  SpaGreedy        :       0.02       0.00         10          2          1
  actconsdiving    :       0.00       0.00          0          0          0
  bound            :       0.00       0.00          0          0          0
  clique           :       0.00       0.00          0          0          0
  coefdiving       :       0.01       0.00          1          0          0
  crossover        :       0.00       0.00          0          0          0
  dins             :       0.00       0.00          0          0          0
  distributiondivin:       0.00       0.00          0          0          0
  dualval          :       0.00       0.00          0          0          0
  feaspump         :       0.01       0.00          1          0          0
  fixandinfer      :       0.00       0.00          0          0          0
  fracdiving       :       0.00       0.00          0          0          0
  guideddiving     :       0.00       0.00          0          0          0
  indicator        :       0.00       0.00          0          0          0
  intdiving        :       0.00       0.00          0          0          0
  intshifting      :       0.00       0.00          1          0          0
  linesearchdiving :       0.00       0.00          0          0          0
  localbranching   :       0.00       0.00          0          0          0
  mutation         :       0.00       0.00          0          0          0
  nlpdiving        :       0.00       0.00          0          0          0
  objpscostdiving  :       0.00       0.00          0          0          0
  octane           :       0.00       0.00          0          0          0
  ofins            :       0.00       0.00          0          0          0
  oneopt           :       0.00       0.00          0          0          0
  proximity        :       0.00       0.00          0          0          0
  pscostdiving     :       0.00       0.00          0          0          0
  randrounding     :       1.30       0.00        114          0          0
  rens             :       0.04       0.00          1          0          0
  reoptsols        :       0.00       0.00          0          0          0
  rins             :       0.00       0.00          0          0          0
  rootsoldiving    :       0.00       0.00          0          0          0
  rounding         :       0.05       0.00        179          0          0
  shiftandpropagate:       0.00       0.00          0          0          0
  shifting         :       0.15       0.00        104          0          0
  simplerounding   :       0.00       0.00          0          0          0
  subnlp           :       0.00       0.00          0          0          0
  trivial          :       0.01       0.00          2          0          0
  trivialnegation  :       0.00       0.00          0          0          0
  trysol           :       0.00       0.00          0          0          0
  twoopt           :       0.00       0.00          0          0          0
  undercover       :       0.00       0.00          1          0          0
  vbounds          :       0.00       0.00          0          0          0
  veclendiving     :       0.00       0.00          0          0          0
  zeroobj          :       0.00       0.00          0          0          0
  zirounding       :       0.00       0.00         68          0          0
  other solutions  :          -          -          -          0          -
Diving Statistics  :      Calls      Nodes   LP Iters Backtracks   MinDepth   MaxDepth   AvgDepth  NLeafSols  MinSolDpt  MaxSolDpt  AvgSolDpt
  actconsdiving    :          0          -          -          -          -          -          -          -          -          -          -
  coefdiving       :          1         34        301          3         34         34       34.0          -          -          -          -
  distributiondivin:          0          -          -          -          -          -          -          -          -          -          -
  fracdiving       :          0          -          -          -          -          -          -          -          -          -          -
  guideddiving     :          0          -          -          -          -          -          -          -          -          -          -
  linesearchdiving :          0          -          -          -          -          -          -          -          -          -          -
  pscostdiving     :          0          -          -          -          -          -          -          -          -          -          -
  veclendiving     :          0          -          -          -          -          -          -          -          -          -          -
LP                 :       Time      Calls Iterations  Iter/call   Iter/sec  Time-0-It Calls-0-It
  primal LP        :       0.00         18          0       0.00          -       0.00         18
  dual LP          :       0.53        370      13052      41.30   24626.42       0.02         54
  lex dual LP      :       0.00          0          0       0.00          -
  barrier LP       :       0.00          0          0       0.00          -       0.00          0
  diving/probing LP:       0.03         11        529      48.09   17633.33
  strong branching :       0.59        264      11447      43.36   19401.69
    (at root node) :          -         38       2796      73.58          -
  conflict analysis:       0.00          0          0       0.00          -
B&B Tree           :
  number of runs   :          1
  nodes            :        100 (69 internal, 31 leaves)
  nodes (total)    :        100 (69 internal, 31 leaves)
  nodes left       :         39
  max depth        :         32
  max depth (total):         32
  backtracks       :         14 (14.0%)
  delayed cutoffs  :          0
  repropagations   :          1 (0 domain reductions, 0 cutoffs)
  avg switch length:       1.82
  switching time   :       0.02
Root Node          :
  First LP value   : +3.00000000000000e+00
  First LP Iters   :        875 (87500.00 Iter/sec)
  First LP Time    :       0.01
  Final Dual Bound : +2.21799172850690e-01
  Final Root Iters :       3354
Solution           :
  Solutions found  :          2 (1 improvements)
  First Solution   : +6.17620818000097e-04   (in run 1, after 1 nodes, 0.17 seconds, depth 0, found by <SpaGreedy>)
  Gap First Sol.   :   infinite
  Gap Last Sol.    :   infinite
  Primal Bound     : +6.17620818000097e-04   (in run 1, after 1 nodes, 0.17 seconds, depth 0, found by <SpaGreedy>)
  Dual Bound       : +1.18154236170563e-01
  Gap              :   19030.55 %
  Avg. Gap         :      99.83 % (458.23 primal-dual integral)
